85
0 38 63 25 60 37 14 66 72 57 
33 30 71 58 26 31 48 22 5 46 
59 11 45 54 12 35 77 29 24 27 
32 40 75 28 15 20 42 6 78 43 
67 80 50 79 62 23 44 76 74 81 
18 53 7 41 47 19 64 9 36 69 
13 65 21 83 55 34 68 52 61 3 
8 82 2 16 1 10 17 51 56 70 
39 84 4 49 73 
